BEST PERMUTATIONS FOUND SO FAR
-----------
Permutation = [0, 6, 104, 113, 5, 105, 14, 107, 19, 16, 20, 21, 3, 23, 22, 18, 71, 7, 8, 10, 2, 89, 115, 59, 61, 60, 58, 90, 57, 63, 99, 9, 119, 12, 114, 49, 4, 51, 123, 55, 120, 56, 50, 1, 36, 35, 34, 40, 29, 42, 33, 38, 41, 37, 25, 26, 30, 11, 13, 39, 43, 102, 44, 53, 52, 47, 117, 48, 46, 45, 111, 110, 93, 54, 65, 112, 64, 88, 98, 91, 124, 103, 109, 84, 85, 86, 87, 108, 95, 68, 69, 70, 67, 72, 66, 73, 17, 76, 78, 79, 77, 75, 74, 83, 80, 116, 125, 81, 31, 28, 32, 121, 27, 24, 122, 94, 92, 106, 126, 96, 97, 100, 101, 82, 62, 118, 15]
Cost = 142607
-----------
Permutation = [0, 6, 104, 113, 5, 105, 14, 107, 19, 16, 20, 21, 3, 23, 22, 18, 71, 7, 8, 10, 2, 89, 115, 59, 61, 60, 58, 90, 57, 63, 99, 9, 119, 12, 114, 49, 4, 51, 123, 55, 120, 56, 50, 1, 36, 35, 34, 40, 29, 42, 33, 38, 41, 37, 25, 26, 30, 11, 13, 39, 43, 102, 44, 53, 52, 47, 117, 48, 46, 45, 111, 110, 93, 54, 65, 112, 64, 88, 98, 91, 124, 103, 109, 84, 85, 86, 87, 108, 95, 68, 69, 70, 67, 72, 66, 73, 17, 76, 78, 79, 77, 75, 74, 83, 80, 116, 125, 81, 31, 28, 32, 121, 27, 24, 96, 122, 94, 92, 106, 126, 97, 100, 101, 82, 62, 118, 15]
Cost = 142421
-----------
Permutation = [0, 6, 104, 113, 5, 105, 14, 107, 19, 16, 20, 21, 3, 23, 22, 18, 71, 7, 8, 10, 2, 89, 115, 59, 61, 60, 58, 90, 57, 63, 99, 9, 119, 12, 114, 49, 4, 51, 123, 55, 120, 56, 50, 1, 36, 35, 34, 40, 29, 42, 33, 38, 41, 37, 25, 26, 30, 11, 13, 39, 43, 102, 44, 53, 52, 47, 117, 48, 46, 45, 111, 110, 93, 54, 65, 112, 64, 88, 98, 91, 124, 103, 109, 84, 85, 86, 87, 108, 95, 68, 69, 70, 67, 72, 66, 73, 17, 76, 78, 79, 77, 75, 74, 83, 80, 116, 125, 81, 31, 28, 32, 121, 27, 24, 82, 118, 62, 101, 100, 97, 96, 122, 94, 126, 106, 92, 15]
Cost = 140849
-----------
Permutation = [0, 6, 104, 113, 5, 105, 14, 107, 19, 16, 20, 21, 3, 23, 22, 18, 71, 7, 8, 10, 2, 89, 115, 59, 61, 60, 58, 90, 57, 63, 99, 9, 119, 12, 114, 49, 4, 51, 123, 55, 120, 56, 50, 1, 36, 35, 34, 40, 29, 42, 33, 38, 41, 37, 25, 26, 30, 11, 13, 39, 43, 102, 44, 53, 52, 47, 117, 48, 46, 45, 111, 110, 93, 54, 65, 112, 64, 88, 98, 91, 124, 103, 109, 84, 85, 86, 87, 108, 95, 68, 69, 70, 67, 72, 66, 73, 17, 76, 78, 79, 77, 75, 74, 83, 80, 116, 125, 81, 31, 28, 121, 27, 32, 24, 82, 118, 62, 101, 100, 97, 96, 122, 94, 126, 106, 92, 15]
Cost = 140759
-----------
Permutation = [0, 6, 104, 113, 5, 105, 14, 107, 19, 16, 20, 21, 3, 23, 22, 18, 71, 7, 8, 10, 2, 89, 115, 59, 61, 60, 58, 90, 57, 63, 99, 9, 119, 12, 114, 49, 4, 51, 123, 55, 120, 56, 50, 1, 36, 35, 34, 40, 29, 42, 33, 38, 41, 37, 25, 26, 30, 11, 13, 39, 43, 102, 44, 53, 52, 47, 117, 48, 46, 45, 111, 110, 93, 54, 65, 112, 64, 88, 98, 91, 124, 103, 109, 84, 85, 86, 87, 108, 95, 68, 69, 70, 67, 72, 66, 73, 17, 76, 78, 79, 77, 75, 74, 83, 80, 116, 125, 81, 31, 28, 27, 121, 32, 24, 82, 118, 62, 101, 100, 97, 96, 122, 94, 126, 106, 92, 15]
Cost = 140711
